[runlim] version:		1.10
[runlim] time limit:		311040000 seconds
[runlim] real time limit:	600 seconds
[runlim] space limit:		14000 MB
[runlim] argv[0]:		python3
[runlim] argv[1]:		-u
[runlim] argv[2]:		mip.py
[runlim] argv[3]:		graph03
[runlim] start:			Sat Jan 24 18:56:49 2026
[runlim] main pid:		40019
Building MIP model...
[runlim] sample:		10.0 time, 10.2 real, 31.4 MB
[runlim] sample:		20.0 time, 20.2 real, 34.1 MB
[runlim] sample:		29.9 time, 30.2 real, 36.5 MB
[runlim] sample:		40.0 time, 40.2 real, 38.8 MB
[runlim] sample:		50.0 time, 50.2 real, 41.5 MB
[runlim] sample:		60.0 time, 60.2 real, 45.0 MB
Build time: 66.23s
Solving MIP (minimizing number of labels)...
Version identifier: 22.1.1.0 | 2022-11-28 | 9160aff4d
CPXPARAM_Read_DataCheck                          1
Legacy callback                                  i
Tried aggregator 2 times.
MIP Presolve eliminated 458229 rows and 35 columns.
MIP Presolve modified 12180 coefficients.
Aggregator did 3764 substitutions.
Reduced MIP has 9668 rows, 3777 columns, and 262508 nonzeros.
Reduced MIP has 3777 binaries, 0 generals, 0 SOSs, and 0 indicators.
Presolve time = 3.06 sec. (4846.96 ticks)
Probing fixed 51 vars, tightened 0 bounds.
Probing changed sense of 7 constraints.
Probing time = 0.02 sec. (8.50 ticks)
Cover probing fixed 15 vars, tightened 0 bounds.
Tried aggregator 2 times.
[runlim] sample:		71.8 time, 70.2 real, 200.6 MB
Detecting symmetries...
MIP Presolve eliminated 131 rows and 82 columns.
MIP Presolve modified 1727 coefficients.
Aggregator did 2 substitutions.
Reduced MIP has 9453 rows, 3691 columns, and 254708 nonzeros.
Reduced MIP has 3691 binaries, 0 generals, 0 SOSs, and 0 indicators.
Presolve time = 0.22 sec. (360.69 ticks)
Probing fixed 18 vars, tightened 0 bounds.
Probing time = 0.03 sec. (9.01 ticks)
Clique table members: 13199.
MIP emphasis: balance optimality and feasibility.
MIP search method: dynamic search.
Parallel mode: deterministic, using up to 12 threads.
Root relaxation solution time = 5.60 sec. (5931.20 ticks)

        Nodes                                         Cuts/
   Node  Left     Objective  IInf  Best Integer    Best Bound    ItCnt     Gap

*     0+    0                           42.0000        0.0000           100.00%
*     0+    0                           40.0000        0.0000           100.00%
*     0+    0                           38.0000        0.0000           100.00%
      0     0       12.0000   875       38.0000       12.0000       12   68.42%

========== NEW INCUMBENT SOLUTION ==========
{1: 708, 2: 470, 3: 554, 4: 792, 5: 30, 6: 268, 7: 540, 8: 778, 9: 554, 10: 792, 11: 554, 12: 792, 13: 366, 14: 128, 15: 310, 16: 72, 17: 296, 18: 58, 19: 750, 20: 512, 21: 414, 22: 652, 23: 324, 24: 86, 25: 512, 26: 750, 27: 512, 28: 750, 29: 526, 30: 764, 31: 296, 32: 58, 33: 380, 34: 142, 35: 268, 36: 30, 37: 268, 38: 30, 39: 792, 40: 554, 41: 414, 42: 652, 43: 324, 44: 86, 45: 470, 46: 708, 47: 324, 48: 86, 49: 778, 50: 540, 51: 540, 52: 778, 53: 268, 54: 30, 55: 764, 56: 526, 57: 498, 58: 736, 59: 296, 60: 58, 61: 324, 62: 86, 63: 428, 64: 666, 65: 470, 66: 708, 67: 512, 68: 750, 69: 442, 70: 680, 71: 554, 72: 792, 73: 282, 74: 44, 75: 352, 76: 114, 77: 380, 78: 142, 79: 428, 80: 666, 81: 428, 82: 666, 83: 442, 84: 680, 85: 428, 86: 666, 87: 428, 88: 666, 89: 352, 90: 114, 91: 428, 92: 666, 93: 380, 94: 142, 95: 142, 96: 380, 97: 428, 98: 666, 99: 764, 100: 526, 101: 792, 102: 554, 103: 268, 104: 30, 105: 484, 106: 722, 107: 526, 108: 764, 109: 282, 110: 44, 111: 394, 112: 156, 113: 394, 114: 156, 115: 750, 116: 512, 117: 282, 118: 44, 119: 366, 120: 128, 121: 526, 122: 764, 123: 442, 124: 680, 125: 554, 126: 792, 127: 484, 128: 722, 129: 540, 130: 778, 131: 268, 132: 30, 133: 484, 134: 722, 135: 554, 136: 792, 137: 526, 138: 764, 139: 722, 140: 484, 141: 498, 142: 736, 143: 366, 144: 128, 145: 30, 146: 268, 147: 484, 148: 722, 149: 282, 150: 44, 151: 366, 152: 128, 153: 428, 154: 666, 155: 324, 156: 86, 157: 394, 158: 156, 159: 352, 160: 114, 161: 498, 162: 736, 163: 526, 164: 764, 165: 498, 166: 736, 167: 428, 168: 666, 169: 282, 170: 44, 171: 282, 172: 44, 173: 366, 174: 128, 175: 512, 176: 750, 177: 380, 178: 142, 179: 484, 180: 722, 181: 296, 182: 58, 183: 498, 184: 736, 185: 268, 186: 30, 187: 470, 188: 708, 189: 442, 190: 680, 191: 428, 192: 666, 193: 366, 194: 128, 195: 380, 196: 142, 197: 296, 198: 58, 199: 778, 200: 540}
Number of labels used: 38
Total time: 75.71 sec
Memory: 298.82 MB
=============================================

========== NEW INCUMBENT SOLUTION ==========
{1: 708, 2: 470, 3: 554, 4: 792, 5: 30, 6: 268, 7: 540, 8: 778, 9: 554, 10: 792, 11: 554, 12: 792, 13: 366, 14: 128, 15: 310, 16: 72, 17: 296, 18: 58, 19: 750, 20: 512, 21: 414, 22: 652, 23: 324, 24: 86, 25: 512, 26: 750, 27: 512, 28: 750, 29: 526, 30: 764, 31: 296, 32: 58, 33: 380, 34: 142, 35: 268, 36: 30, 37: 268, 38: 30, 39: 792, 40: 554, 41: 414, 42: 652, 43: 324, 44: 86, 45: 470, 46: 708, 47: 324, 48: 86, 49: 778, 50: 540, 51: 540, 52: 778, 53: 268, 54: 30, 55: 764, 56: 526, 57: 498, 58: 736, 59: 296, 60: 58, 61: 324, 62: 86, 63: 428, 64: 666, 65: 470, 66: 708, 67: 512, 68: 750, 69: 442, 70: 680, 71: 554, 72: 792, 73: 282, 74: 44, 75: 352, 76: 114, 77: 380, 78: 142, 79: 428, 80: 666, 81: 428, 82: 666, 83: 442, 84: 680, 85: 428, 86: 666, 87: 428, 88: 666, 89: 352, 90: 114, 91: 428, 92: 666, 93: 380, 94: 142, 95: 142, 96: 380, 97: 428, 98: 666, 99: 764, 100: 526, 101: 792, 102: 554, 103: 268, 104: 30, 105: 484, 106: 722, 107: 526, 108: 764, 109: 282, 110: 44, 111: 394, 112: 156, 113: 394, 114: 156, 115: 750, 116: 512, 117: 282, 118: 44, 119: 366, 120: 128, 121: 526, 122: 764, 123: 442, 124: 680, 125: 554, 126: 792, 127: 484, 128: 722, 129: 540, 130: 778, 131: 268, 132: 30, 133: 484, 134: 722, 135: 554, 136: 792, 137: 526, 138: 764, 139: 722, 140: 484, 141: 498, 142: 736, 143: 366, 144: 128, 145: 30, 146: 268, 147: 484, 148: 722, 149: 282, 150: 44, 151: 366, 152: 128, 153: 428, 154: 666, 155: 324, 156: 86, 157: 394, 158: 156, 159: 352, 160: 114, 161: 498, 162: 736, 163: 526, 164: 764, 165: 498, 166: 736, 167: 428, 168: 666, 169: 282, 170: 44, 171: 282, 172: 44, 173: 366, 174: 128, 175: 512, 176: 750, 177: 380, 178: 142, 179: 484, 180: 722, 181: 296, 182: 58, 183: 498, 184: 736, 185: 268, 186: 30, 187: 470, 188: 708, 189: 442, 190: 680, 191: 428, 192: 666, 193: 366, 194: 128, 195: 380, 196: 142, 197: 296, 198: 58, 199: 778, 200: 540}
Number of labels used: 38
Total time: 75.71 sec
Memory: 298.82 MB
=============================================
[runlim] sample:		108.5 time, 80.2 real, 346.7 MB
[runlim] sample:		128.5 time, 90.2 real, 363.4 MB
[runlim] sample:		148.5 time, 100.2 real, 364.2 MB
[runlim] sample:		168.5 time, 110.2 real, 364.2 MB
[runlim] sample:		188.5 time, 120.2 real, 364.2 MB
[runlim] sample:		208.5 time, 130.2 real, 364.2 MB
[runlim] sample:		228.4 time, 140.2 real, 364.2 MB

========== NEW INCUMBENT SOLUTION ==========
{1: 708, 2: 470, 3: 554, 4: 792, 5: 30, 6: 268, 7: 540, 8: 778, 9: 554, 10: 792, 11: 554, 12: 792, 13: 366, 14: 128, 15: 310, 16: 72, 17: 296, 18: 58, 19: 750, 20: 512, 21: 414, 22: 652, 23: 324, 24: 86, 25: 512, 26: 750, 27: 512, 28: 750, 29: 526, 30: 764, 31: 296, 32: 58, 33: 380, 34: 142, 35: 268, 36: 30, 37: 268, 38: 30, 39: 792, 40: 554, 41: 414, 42: 652, 43: 324, 44: 86, 45: 470, 46: 708, 47: 324, 48: 86, 49: 778, 50: 540, 51: 540, 52: 778, 53: 268, 54: 30, 55: 764, 56: 526, 57: 498, 58: 736, 59: 296, 60: 58, 61: 324, 62: 86, 63: 428, 64: 666, 65: 470, 66: 708, 67: 512, 68: 750, 69: 442, 70: 680, 71: 554, 72: 792, 73: 282, 74: 44, 75: 352, 76: 114, 77: 380, 78: 142, 79: 428, 80: 666, 81: 428, 82: 666, 83: 442, 84: 680, 85: 428, 86: 666, 87: 428, 88: 666, 89: 352, 90: 114, 91: 428, 92: 666, 93: 380, 94: 142, 95: 142, 96: 380, 97: 428, 98: 666, 99: 764, 100: 526, 101: 792, 102: 554, 103: 268, 104: 30, 105: 484, 106: 722, 107: 526, 108: 764, 109: 282, 110: 44, 111: 394, 112: 156, 113: 394, 114: 156, 115: 750, 116: 512, 117: 282, 118: 44, 119: 366, 120: 128, 121: 526, 122: 764, 123: 442, 124: 680, 125: 554, 126: 792, 127: 484, 128: 722, 129: 540, 130: 778, 131: 268, 132: 30, 133: 484, 134: 722, 135: 554, 136: 792, 137: 526, 138: 764, 139: 722, 140: 484, 141: 498, 142: 736, 143: 366, 144: 128, 145: 30, 146: 268, 147: 484, 148: 722, 149: 282, 150: 44, 151: 366, 152: 128, 153: 428, 154: 666, 155: 324, 156: 86, 157: 394, 158: 156, 159: 352, 160: 114, 161: 498, 162: 736, 163: 526, 164: 764, 165: 498, 166: 736, 167: 428, 168: 666, 169: 282, 170: 44, 171: 282, 172: 44, 173: 366, 174: 128, 175: 512, 176: 750, 177: 380, 178: 142, 179: 484, 180: 722, 181: 296, 182: 58, 183: 498, 184: 736, 185: 268, 186: 30, 187: 470, 188: 708, 189: 442, 190: 680, 191: 428, 192: 666, 193: 366, 194: 128, 195: 380, 196: 142, 197: 296, 198: 58, 199: 778, 200: 540}
Number of labels used: 38
Total time: 148.68 sec
Memory: 365.21 MB
=============================================
      0     0       12.0000  1528       38.0000     Cuts: 253    44484   68.42%

========== NEW INCUMBENT SOLUTION ==========
{1: 708, 2: 470, 3: 554, 4: 792, 5: 30, 6: 268, 7: 540, 8: 778, 9: 554, 10: 792, 11: 554, 12: 792, 13: 366, 14: 128, 15: 310, 16: 72, 17: 296, 18: 58, 19: 750, 20: 512, 21: 414, 22: 652, 23: 324, 24: 86, 25: 512, 26: 750, 27: 512, 28: 750, 29: 526, 30: 764, 31: 296, 32: 58, 33: 380, 34: 142, 35: 268, 36: 30, 37: 268, 38: 30, 39: 792, 40: 554, 41: 414, 42: 652, 43: 324, 44: 86, 45: 470, 46: 708, 47: 324, 48: 86, 49: 778, 50: 540, 51: 540, 52: 778, 53: 268, 54: 30, 55: 764, 56: 526, 57: 498, 58: 736, 59: 296, 60: 58, 61: 324, 62: 86, 63: 428, 64: 666, 65: 470, 66: 708, 67: 512, 68: 750, 69: 442, 70: 680, 71: 554, 72: 792, 73: 282, 74: 44, 75: 352, 76: 114, 77: 380, 78: 142, 79: 428, 80: 666, 81: 428, 82: 666, 83: 442, 84: 680, 85: 428, 86: 666, 87: 428, 88: 666, 89: 352, 90: 114, 91: 428, 92: 666, 93: 380, 94: 142, 95: 142, 96: 380, 97: 428, 98: 666, 99: 764, 100: 526, 101: 792, 102: 554, 103: 268, 104: 30, 105: 484, 106: 722, 107: 526, 108: 764, 109: 282, 110: 44, 111: 394, 112: 156, 113: 394, 114: 156, 115: 750, 116: 512, 117: 282, 118: 44, 119: 366, 120: 128, 121: 526, 122: 764, 123: 442, 124: 680, 125: 554, 126: 792, 127: 484, 128: 722, 129: 540, 130: 778, 131: 268, 132: 30, 133: 484, 134: 722, 135: 554, 136: 792, 137: 526, 138: 764, 139: 722, 140: 484, 141: 498, 142: 736, 143: 366, 144: 128, 145: 30, 146: 268, 147: 484, 148: 722, 149: 282, 150: 44, 151: 366, 152: 128, 153: 428, 154: 666, 155: 324, 156: 86, 157: 394, 158: 156, 159: 352, 160: 114, 161: 498, 162: 736, 163: 526, 164: 764, 165: 498, 166: 736, 167: 428, 168: 666, 169: 282, 170: 44, 171: 282, 172: 44, 173: 366, 174: 128, 175: 512, 176: 750, 177: 380, 178: 142, 179: 484, 180: 722, 181: 296, 182: 58, 183: 498, 184: 736, 185: 268, 186: 30, 187: 470, 188: 708, 189: 442, 190: 680, 191: 428, 192: 666, 193: 366, 194: 128, 195: 380, 196: 142, 197: 296, 198: 58, 199: 778, 200: 540}
Number of labels used: 38
Total time: 148.70 sec
Memory: 365.21 MB
=============================================
[runlim] sample:		248.4 time, 150.2 real, 364.2 MB
[runlim] sample:		268.4 time, 160.2 real, 376.0 MB
[runlim] sample:		288.4 time, 170.2 real, 376.8 MB
[runlim] sample:		308.4 time, 180.2 real, 376.8 MB
[runlim] sample:		328.4 time, 190.2 real, 376.9 MB
[runlim] sample:		348.4 time, 200.2 real, 377.0 MB
[runlim] sample:		368.4 time, 210.2 real, 377.8 MB
[runlim] sample:		388.4 time, 220.2 real, 377.8 MB
[runlim] sample:		408.4 time, 230.2 real, 377.8 MB

========== NEW INCUMBENT SOLUTION ==========
{1: 708, 2: 470, 3: 554, 4: 792, 5: 30, 6: 268, 7: 540, 8: 778, 9: 554, 10: 792, 11: 554, 12: 792, 13: 366, 14: 128, 15: 310, 16: 72, 17: 296, 18: 58, 19: 750, 20: 512, 21: 414, 22: 652, 23: 324, 24: 86, 25: 512, 26: 750, 27: 512, 28: 750, 29: 526, 30: 764, 31: 296, 32: 58, 33: 380, 34: 142, 35: 268, 36: 30, 37: 268, 38: 30, 39: 792, 40: 554, 41: 414, 42: 652, 43: 324, 44: 86, 45: 470, 46: 708, 47: 324, 48: 86, 49: 778, 50: 540, 51: 540, 52: 778, 53: 268, 54: 30, 55: 764, 56: 526, 57: 498, 58: 736, 59: 296, 60: 58, 61: 324, 62: 86, 63: 428, 64: 666, 65: 470, 66: 708, 67: 512, 68: 750, 69: 442, 70: 680, 71: 554, 72: 792, 73: 282, 74: 44, 75: 352, 76: 114, 77: 380, 78: 142, 79: 428, 80: 666, 81: 428, 82: 666, 83: 442, 84: 680, 85: 428, 86: 666, 87: 428, 88: 666, 89: 352, 90: 114, 91: 428, 92: 666, 93: 380, 94: 142, 95: 142, 96: 380, 97: 428, 98: 666, 99: 764, 100: 526, 101: 792, 102: 554, 103: 268, 104: 30, 105: 484, 106: 722, 107: 526, 108: 764, 109: 282, 110: 44, 111: 394, 112: 156, 113: 394, 114: 156, 115: 750, 116: 512, 117: 282, 118: 44, 119: 366, 120: 128, 121: 526, 122: 764, 123: 442, 124: 680, 125: 554, 126: 792, 127: 484, 128: 722, 129: 540, 130: 778, 131: 268, 132: 30, 133: 484, 134: 722, 135: 554, 136: 792, 137: 526, 138: 764, 139: 722, 140: 484, 141: 498, 142: 736, 143: 366, 144: 128, 145: 30, 146: 268, 147: 484, 148: 722, 149: 282, 150: 44, 151: 366, 152: 128, 153: 428, 154: 666, 155: 324, 156: 86, 157: 394, 158: 156, 159: 352, 160: 114, 161: 498, 162: 736, 163: 526, 164: 764, 165: 498, 166: 736, 167: 428, 168: 666, 169: 282, 170: 44, 171: 282, 172: 44, 173: 366, 174: 128, 175: 512, 176: 750, 177: 380, 178: 142, 179: 484, 180: 722, 181: 296, 182: 58, 183: 498, 184: 736, 185: 268, 186: 30, 187: 470, 188: 708, 189: 442, 190: 680, 191: 428, 192: 666, 193: 366, 194: 128, 195: 380, 196: 142, 197: 296, 198: 58, 199: 778, 200: 540}
Number of labels used: 38
Total time: 236.40 sec
Memory: 378.81 MB
=============================================
      0     0       12.0000  1477       38.0000  Cliques: 416   110843   68.42%

========== NEW INCUMBENT SOLUTION ==========
{1: 708, 2: 470, 3: 554, 4: 792, 5: 30, 6: 268, 7: 540, 8: 778, 9: 554, 10: 792, 11: 554, 12: 792, 13: 366, 14: 128, 15: 310, 16: 72, 17: 296, 18: 58, 19: 750, 20: 512, 21: 414, 22: 652, 23: 324, 24: 86, 25: 512, 26: 750, 27: 512, 28: 750, 29: 526, 30: 764, 31: 296, 32: 58, 33: 380, 34: 142, 35: 268, 36: 30, 37: 268, 38: 30, 39: 792, 40: 554, 41: 414, 42: 652, 43: 324, 44: 86, 45: 470, 46: 708, 47: 324, 48: 86, 49: 778, 50: 540, 51: 540, 52: 778, 53: 268, 54: 30, 55: 764, 56: 526, 57: 498, 58: 736, 59: 296, 60: 58, 61: 324, 62: 86, 63: 428, 64: 666, 65: 470, 66: 708, 67: 512, 68: 750, 69: 442, 70: 680, 71: 554, 72: 792, 73: 282, 74: 44, 75: 352, 76: 114, 77: 380, 78: 142, 79: 428, 80: 666, 81: 428, 82: 666, 83: 442, 84: 680, 85: 428, 86: 666, 87: 428, 88: 666, 89: 352, 90: 114, 91: 428, 92: 666, 93: 380, 94: 142, 95: 142, 96: 380, 97: 428, 98: 666, 99: 764, 100: 526, 101: 792, 102: 554, 103: 268, 104: 30, 105: 484, 106: 722, 107: 526, 108: 764, 109: 282, 110: 44, 111: 394, 112: 156, 113: 394, 114: 156, 115: 750, 116: 512, 117: 282, 118: 44, 119: 366, 120: 128, 121: 526, 122: 764, 123: 442, 124: 680, 125: 554, 126: 792, 127: 484, 128: 722, 129: 540, 130: 778, 131: 268, 132: 30, 133: 484, 134: 722, 135: 554, 136: 792, 137: 526, 138: 764, 139: 722, 140: 484, 141: 498, 142: 736, 143: 366, 144: 128, 145: 30, 146: 268, 147: 484, 148: 722, 149: 282, 150: 44, 151: 366, 152: 128, 153: 428, 154: 666, 155: 324, 156: 86, 157: 394, 158: 156, 159: 352, 160: 114, 161: 498, 162: 736, 163: 526, 164: 764, 165: 498, 166: 736, 167: 428, 168: 666, 169: 282, 170: 44, 171: 282, 172: 44, 173: 366, 174: 128, 175: 512, 176: 750, 177: 380, 178: 142, 179: 484, 180: 722, 181: 296, 182: 58, 183: 498, 184: 736, 185: 268, 186: 30, 187: 470, 188: 708, 189: 442, 190: 680, 191: 428, 192: 666, 193: 366, 194: 128, 195: 380, 196: 142, 197: 296, 198: 58, 199: 778, 200: 540}
Number of labels used: 38
Total time: 236.42 sec
Memory: 378.81 MB
=============================================
[runlim] sample:		428.4 time, 240.2 real, 377.8 MB
[runlim] sample:		448.4 time, 250.2 real, 378.9 MB
[runlim] sample:		468.4 time, 260.2 real, 392.7 MB
[runlim] sample:		488.4 time, 270.2 real, 392.8 MB
[runlim] sample:		508.3 time, 280.2 real, 392.9 MB
[runlim] sample:		528.3 time, 290.2 real, 392.9 MB
[runlim] sample:		548.3 time, 300.2 real, 392.9 MB
[runlim] sample:		568.3 time, 310.2 real, 392.9 MB
[runlim] sample:		588.3 time, 320.2 real, 392.9 MB
[runlim] sample:		608.3 time, 330.2 real, 392.9 MB
[runlim] sample:		628.3 time, 340.2 real, 392.9 MB
[runlim] sample:		648.3 time, 350.2 real, 392.9 MB
[runlim] sample:		668.3 time, 360.2 real, 392.9 MB
[runlim] sample:		688.3 time, 370.2 real, 392.9 MB
[runlim] sample:		708.3 time, 380.2 real, 392.9 MB
[runlim] sample:		728.3 time, 390.2 real, 392.9 MB
[runlim] sample:		748.3 time, 400.2 real, 392.9 MB
[runlim] sample:		768.3 time, 410.2 real, 392.9 MB
[runlim] sample:		788.3 time, 420.2 real, 392.9 MB
[runlim] sample:		808.3 time, 430.2 real, 392.9 MB

========== NEW INCUMBENT SOLUTION ==========
{1: 708, 2: 470, 3: 554, 4: 792, 5: 30, 6: 268, 7: 540, 8: 778, 9: 554, 10: 792, 11: 554, 12: 792, 13: 366, 14: 128, 15: 310, 16: 72, 17: 296, 18: 58, 19: 750, 20: 512, 21: 414, 22: 652, 23: 324, 24: 86, 25: 512, 26: 750, 27: 512, 28: 750, 29: 526, 30: 764, 31: 296, 32: 58, 33: 380, 34: 142, 35: 268, 36: 30, 37: 268, 38: 30, 39: 792, 40: 554, 41: 414, 42: 652, 43: 324, 44: 86, 45: 470, 46: 708, 47: 324, 48: 86, 49: 778, 50: 540, 51: 540, 52: 778, 53: 268, 54: 30, 55: 764, 56: 526, 57: 498, 58: 736, 59: 296, 60: 58, 61: 324, 62: 86, 63: 428, 64: 666, 65: 470, 66: 708, 67: 512, 68: 750, 69: 442, 70: 680, 71: 554, 72: 792, 73: 282, 74: 44, 75: 352, 76: 114, 77: 380, 78: 142, 79: 428, 80: 666, 81: 428, 82: 666, 83: 442, 84: 680, 85: 428, 86: 666, 87: 428, 88: 666, 89: 352, 90: 114, 91: 428, 92: 666, 93: 380, 94: 142, 95: 142, 96: 380, 97: 428, 98: 666, 99: 764, 100: 526, 101: 792, 102: 554, 103: 268, 104: 30, 105: 484, 106: 722, 107: 526, 108: 764, 109: 282, 110: 44, 111: 394, 112: 156, 113: 394, 114: 156, 115: 750, 116: 512, 117: 282, 118: 44, 119: 366, 120: 128, 121: 526, 122: 764, 123: 442, 124: 680, 125: 554, 126: 792, 127: 484, 128: 722, 129: 540, 130: 778, 131: 268, 132: 30, 133: 484, 134: 722, 135: 554, 136: 792, 137: 526, 138: 764, 139: 722, 140: 484, 141: 498, 142: 736, 143: 366, 144: 128, 145: 30, 146: 268, 147: 484, 148: 722, 149: 282, 150: 44, 151: 366, 152: 128, 153: 428, 154: 666, 155: 324, 156: 86, 157: 394, 158: 156, 159: 352, 160: 114, 161: 498, 162: 736, 163: 526, 164: 764, 165: 498, 166: 736, 167: 428, 168: 666, 169: 282, 170: 44, 171: 282, 172: 44, 173: 366, 174: 128, 175: 512, 176: 750, 177: 380, 178: 142, 179: 484, 180: 722, 181: 296, 182: 58, 183: 498, 184: 736, 185: 268, 186: 30, 187: 470, 188: 708, 189: 442, 190: 680, 191: 428, 192: 666, 193: 366, 194: 128, 195: 380, 196: 142, 197: 296, 198: 58, 199: 778, 200: 540}
Number of labels used: 38
Total time: 434.70 sec
Memory: 393.90 MB
=============================================
      0     0       12.0178  1419       38.0000  Cliques: 409   302292   68.37%

========== NEW INCUMBENT SOLUTION ==========
{1: 708, 2: 470, 3: 554, 4: 792, 5: 30, 6: 268, 7: 540, 8: 778, 9: 554, 10: 792, 11: 554, 12: 792, 13: 366, 14: 128, 15: 310, 16: 72, 17: 296, 18: 58, 19: 750, 20: 512, 21: 414, 22: 652, 23: 324, 24: 86, 25: 512, 26: 750, 27: 512, 28: 750, 29: 526, 30: 764, 31: 296, 32: 58, 33: 380, 34: 142, 35: 268, 36: 30, 37: 268, 38: 30, 39: 792, 40: 554, 41: 414, 42: 652, 43: 324, 44: 86, 45: 470, 46: 708, 47: 324, 48: 86, 49: 778, 50: 540, 51: 540, 52: 778, 53: 268, 54: 30, 55: 764, 56: 526, 57: 498, 58: 736, 59: 296, 60: 58, 61: 324, 62: 86, 63: 428, 64: 666, 65: 470, 66: 708, 67: 512, 68: 750, 69: 442, 70: 680, 71: 554, 72: 792, 73: 282, 74: 44, 75: 352, 76: 114, 77: 380, 78: 142, 79: 428, 80: 666, 81: 428, 82: 666, 83: 442, 84: 680, 85: 428, 86: 666, 87: 428, 88: 666, 89: 352, 90: 114, 91: 428, 92: 666, 93: 380, 94: 142, 95: 142, 96: 380, 97: 428, 98: 666, 99: 764, 100: 526, 101: 792, 102: 554, 103: 268, 104: 30, 105: 484, 106: 722, 107: 526, 108: 764, 109: 282, 110: 44, 111: 394, 112: 156, 113: 394, 114: 156, 115: 750, 116: 512, 117: 282, 118: 44, 119: 366, 120: 128, 121: 526, 122: 764, 123: 442, 124: 680, 125: 554, 126: 792, 127: 484, 128: 722, 129: 540, 130: 778, 131: 268, 132: 30, 133: 484, 134: 722, 135: 554, 136: 792, 137: 526, 138: 764, 139: 722, 140: 484, 141: 498, 142: 736, 143: 366, 144: 128, 145: 30, 146: 268, 147: 484, 148: 722, 149: 282, 150: 44, 151: 366, 152: 128, 153: 428, 154: 666, 155: 324, 156: 86, 157: 394, 158: 156, 159: 352, 160: 114, 161: 498, 162: 736, 163: 526, 164: 764, 165: 498, 166: 736, 167: 428, 168: 666, 169: 282, 170: 44, 171: 282, 172: 44, 173: 366, 174: 128, 175: 512, 176: 750, 177: 380, 178: 142, 179: 484, 180: 722, 181: 296, 182: 58, 183: 498, 184: 736, 185: 268, 186: 30, 187: 470, 188: 708, 189: 442, 190: 680, 191: 428, 192: 666, 193: 366, 194: 128, 195: 380, 196: 142, 197: 296, 198: 58, 199: 778, 200: 540}
Number of labels used: 38
Total time: 434.71 sec
Memory: 393.90 MB
=============================================
[runlim] sample:		828.2 time, 440.2 real, 392.9 MB
[runlim] sample:		848.2 time, 450.2 real, 392.9 MB
[runlim] sample:		868.2 time, 460.2 real, 392.9 MB
[runlim] sample:		888.2 time, 470.2 real, 392.9 MB

========== NEW INCUMBENT SOLUTION ==========
{1: 708, 2: 470, 3: 554, 4: 792, 5: 30, 6: 268, 7: 540, 8: 778, 9: 554, 10: 792, 11: 554, 12: 792, 13: 366, 14: 128, 15: 310, 16: 72, 17: 296, 18: 58, 19: 750, 20: 512, 21: 414, 22: 652, 23: 324, 24: 86, 25: 512, 26: 750, 27: 512, 28: 750, 29: 526, 30: 764, 31: 296, 32: 58, 33: 380, 34: 142, 35: 268, 36: 30, 37: 268, 38: 30, 39: 792, 40: 554, 41: 414, 42: 652, 43: 324, 44: 86, 45: 470, 46: 708, 47: 324, 48: 86, 49: 778, 50: 540, 51: 540, 52: 778, 53: 268, 54: 30, 55: 764, 56: 526, 57: 498, 58: 736, 59: 296, 60: 58, 61: 324, 62: 86, 63: 428, 64: 666, 65: 470, 66: 708, 67: 512, 68: 750, 69: 442, 70: 680, 71: 554, 72: 792, 73: 282, 74: 44, 75: 352, 76: 114, 77: 380, 78: 142, 79: 428, 80: 666, 81: 428, 82: 666, 83: 442, 84: 680, 85: 428, 86: 666, 87: 428, 88: 666, 89: 352, 90: 114, 91: 428, 92: 666, 93: 380, 94: 142, 95: 142, 96: 380, 97: 428, 98: 666, 99: 764, 100: 526, 101: 792, 102: 554, 103: 268, 104: 30, 105: 484, 106: 722, 107: 526, 108: 764, 109: 282, 110: 44, 111: 394, 112: 156, 113: 394, 114: 156, 115: 750, 116: 512, 117: 282, 118: 44, 119: 366, 120: 128, 121: 526, 122: 764, 123: 442, 124: 680, 125: 554, 126: 792, 127: 484, 128: 722, 129: 540, 130: 778, 131: 268, 132: 30, 133: 484, 134: 722, 135: 554, 136: 792, 137: 526, 138: 764, 139: 722, 140: 484, 141: 498, 142: 736, 143: 366, 144: 128, 145: 30, 146: 268, 147: 484, 148: 722, 149: 282, 150: 44, 151: 366, 152: 128, 153: 428, 154: 666, 155: 324, 156: 86, 157: 394, 158: 156, 159: 352, 160: 114, 161: 498, 162: 736, 163: 526, 164: 764, 165: 498, 166: 736, 167: 428, 168: 666, 169: 282, 170: 44, 171: 282, 172: 44, 173: 366, 174: 128, 175: 512, 176: 750, 177: 380, 178: 142, 179: 484, 180: 722, 181: 296, 182: 58, 183: 498, 184: 736, 185: 268, 186: 30, 187: 470, 188: 708, 189: 442, 190: 680, 191: 428, 192: 666, 193: 366, 194: 128, 195: 380, 196: 142, 197: 296, 198: 58, 199: 778, 200: 540}
Number of labels used: 38
Total time: 471.48 sec
Memory: 393.90 MB
=============================================
[runlim] sample:		908.2 time, 480.2 real, 392.9 MB
[runlim] sample:		928.2 time, 490.2 real, 392.9 MB
[runlim] sample:		948.2 time, 500.2 real, 392.9 MB
[runlim] sample:		968.2 time, 510.2 real, 392.9 MB
[runlim] sample:		988.2 time, 520.2 real, 392.9 MB
[runlim] sample:		1008.2 time, 530.2 real, 392.9 MB
[runlim] sample:		1028.2 time, 540.2 real, 392.9 MB
[runlim] sample:		1048.2 time, 550.2 real, 392.9 MB
[runlim] sample:		1068.2 time, 560.2 real, 392.9 MB

========== NEW INCUMBENT SOLUTION ==========
{1: 708, 2: 470, 3: 554, 4: 792, 5: 30, 6: 268, 7: 540, 8: 778, 9: 554, 10: 792, 11: 554, 12: 792, 13: 366, 14: 128, 15: 310, 16: 72, 17: 296, 18: 58, 19: 750, 20: 512, 21: 414, 22: 652, 23: 324, 24: 86, 25: 512, 26: 750, 27: 512, 28: 750, 29: 526, 30: 764, 31: 296, 32: 58, 33: 380, 34: 142, 35: 268, 36: 30, 37: 268, 38: 30, 39: 792, 40: 554, 41: 414, 42: 652, 43: 324, 44: 86, 45: 470, 46: 708, 47: 324, 48: 86, 49: 778, 50: 540, 51: 540, 52: 778, 53: 268, 54: 30, 55: 764, 56: 526, 57: 498, 58: 736, 59: 296, 60: 58, 61: 324, 62: 86, 63: 428, 64: 666, 65: 470, 66: 708, 67: 512, 68: 750, 69: 442, 70: 680, 71: 554, 72: 792, 73: 282, 74: 44, 75: 352, 76: 114, 77: 380, 78: 142, 79: 428, 80: 666, 81: 428, 82: 666, 83: 442, 84: 680, 85: 428, 86: 666, 87: 428, 88: 666, 89: 352, 90: 114, 91: 428, 92: 666, 93: 380, 94: 142, 95: 142, 96: 380, 97: 428, 98: 666, 99: 764, 100: 526, 101: 792, 102: 554, 103: 268, 104: 30, 105: 484, 106: 722, 107: 526, 108: 764, 109: 282, 110: 44, 111: 394, 112: 156, 113: 394, 114: 156, 115: 750, 116: 512, 117: 282, 118: 44, 119: 366, 120: 128, 121: 526, 122: 764, 123: 442, 124: 680, 125: 554, 126: 792, 127: 484, 128: 722, 129: 540, 130: 778, 131: 268, 132: 30, 133: 484, 134: 722, 135: 554, 136: 792, 137: 526, 138: 764, 139: 722, 140: 484, 141: 498, 142: 736, 143: 366, 144: 128, 145: 30, 146: 268, 147: 484, 148: 722, 149: 282, 150: 44, 151: 366, 152: 128, 153: 428, 154: 666, 155: 324, 156: 86, 157: 394, 158: 156, 159: 352, 160: 114, 161: 498, 162: 736, 163: 526, 164: 764, 165: 498, 166: 736, 167: 428, 168: 666, 169: 282, 170: 44, 171: 282, 172: 44, 173: 366, 174: 128, 175: 512, 176: 750, 177: 380, 178: 142, 179: 484, 180: 722, 181: 296, 182: 58, 183: 498, 184: 736, 185: 268, 186: 30, 187: 470, 188: 708, 189: 442, 190: 680, 191: 428, 192: 666, 193: 366, 194: 128, 195: 380, 196: 142, 197: 296, 198: 58, 199: 778, 200: 540}
Number of labels used: 38
Total time: 562.08 sec
Memory: 394.00 MB
=============================================
      0     0       12.0664  1488       38.0000    Cuts: 1024   415444   68.25%

========== NEW INCUMBENT SOLUTION ==========
{1: 708, 2: 470, 3: 554, 4: 792, 5: 30, 6: 268, 7: 540, 8: 778, 9: 554, 10: 792, 11: 554, 12: 792, 13: 366, 14: 128, 15: 310, 16: 72, 17: 296, 18: 58, 19: 750, 20: 512, 21: 414, 22: 652, 23: 324, 24: 86, 25: 512, 26: 750, 27: 512, 28: 750, 29: 526, 30: 764, 31: 296, 32: 58, 33: 380, 34: 142, 35: 268, 36: 30, 37: 268, 38: 30, 39: 792, 40: 554, 41: 414, 42: 652, 43: 324, 44: 86, 45: 470, 46: 708, 47: 324, 48: 86, 49: 778, 50: 540, 51: 540, 52: 778, 53: 268, 54: 30, 55: 764, 56: 526, 57: 498, 58: 736, 59: 296, 60: 58, 61: 324, 62: 86, 63: 428, 64: 666, 65: 470, 66: 708, 67: 512, 68: 750, 69: 442, 70: 680, 71: 554, 72: 792, 73: 282, 74: 44, 75: 352, 76: 114, 77: 380, 78: 142, 79: 428, 80: 666, 81: 428, 82: 666, 83: 442, 84: 680, 85: 428, 86: 666, 87: 428, 88: 666, 89: 352, 90: 114, 91: 428, 92: 666, 93: 380, 94: 142, 95: 142, 96: 380, 97: 428, 98: 666, 99: 764, 100: 526, 101: 792, 102: 554, 103: 268, 104: 30, 105: 484, 106: 722, 107: 526, 108: 764, 109: 282, 110: 44, 111: 394, 112: 156, 113: 394, 114: 156, 115: 750, 116: 512, 117: 282, 118: 44, 119: 366, 120: 128, 121: 526, 122: 764, 123: 442, 124: 680, 125: 554, 126: 792, 127: 484, 128: 722, 129: 540, 130: 778, 131: 268, 132: 30, 133: 484, 134: 722, 135: 554, 136: 792, 137: 526, 138: 764, 139: 722, 140: 484, 141: 498, 142: 736, 143: 366, 144: 128, 145: 30, 146: 268, 147: 484, 148: 722, 149: 282, 150: 44, 151: 366, 152: 128, 153: 428, 154: 666, 155: 324, 156: 86, 157: 394, 158: 156, 159: 352, 160: 114, 161: 498, 162: 736, 163: 526, 164: 764, 165: 498, 166: 736, 167: 428, 168: 666, 169: 282, 170: 44, 171: 282, 172: 44, 173: 366, 174: 128, 175: 512, 176: 750, 177: 380, 178: 142, 179: 484, 180: 722, 181: 296, 182: 58, 183: 498, 184: 736, 185: 268, 186: 30, 187: 470, 188: 708, 189: 442, 190: 680, 191: 428, 192: 666, 193: 366, 194: 128, 195: 380, 196: 142, 197: 296, 198: 58, 199: 778, 200: 540}
Number of labels used: 38
Total time: 562.10 sec
Memory: 394.00 MB
=============================================

========== NEW INCUMBENT SOLUTION ==========
{1: 708, 2: 470, 3: 554, 4: 792, 5: 30, 6: 268, 7: 540, 8: 778, 9: 554, 10: 792, 11: 554, 12: 792, 13: 366, 14: 128, 15: 310, 16: 72, 17: 296, 18: 58, 19: 750, 20: 512, 21: 414, 22: 652, 23: 324, 24: 86, 25: 512, 26: 750, 27: 512, 28: 750, 29: 526, 30: 764, 31: 296, 32: 58, 33: 380, 34: 142, 35: 268, 36: 30, 37: 268, 38: 30, 39: 792, 40: 554, 41: 414, 42: 652, 43: 324, 44: 86, 45: 470, 46: 708, 47: 324, 48: 86, 49: 778, 50: 540, 51: 540, 52: 778, 53: 268, 54: 30, 55: 764, 56: 526, 57: 498, 58: 736, 59: 296, 60: 58, 61: 324, 62: 86, 63: 428, 64: 666, 65: 470, 66: 708, 67: 512, 68: 750, 69: 442, 70: 680, 71: 554, 72: 792, 73: 282, 74: 44, 75: 352, 76: 114, 77: 380, 78: 142, 79: 428, 80: 666, 81: 428, 82: 666, 83: 442, 84: 680, 85: 428, 86: 666, 87: 428, 88: 666, 89: 352, 90: 114, 91: 428, 92: 666, 93: 380, 94: 142, 95: 142, 96: 380, 97: 428, 98: 666, 99: 764, 100: 526, 101: 792, 102: 554, 103: 268, 104: 30, 105: 484, 106: 722, 107: 526, 108: 764, 109: 282, 110: 44, 111: 394, 112: 156, 113: 394, 114: 156, 115: 750, 116: 512, 117: 282, 118: 44, 119: 366, 120: 128, 121: 526, 122: 764, 123: 442, 124: 680, 125: 554, 126: 792, 127: 484, 128: 722, 129: 540, 130: 778, 131: 268, 132: 30, 133: 484, 134: 722, 135: 554, 136: 792, 137: 526, 138: 764, 139: 722, 140: 484, 141: 498, 142: 736, 143: 366, 144: 128, 145: 30, 146: 268, 147: 484, 148: 722, 149: 282, 150: 44, 151: 366, 152: 128, 153: 428, 154: 666, 155: 324, 156: 86, 157: 394, 158: 156, 159: 352, 160: 114, 161: 498, 162: 736, 163: 526, 164: 764, 165: 498, 166: 736, 167: 428, 168: 666, 169: 282, 170: 44, 171: 282, 172: 44, 173: 366, 174: 128, 175: 512, 176: 750, 177: 380, 178: 142, 179: 484, 180: 722, 181: 296, 182: 58, 183: 498, 184: 736, 185: 268, 186: 30, 187: 470, 188: 708, 189: 442, 190: 680, 191: 428, 192: 666, 193: 366, 194: 128, 195: 380, 196: 142, 197: 296, 198: 58, 199: 778, 200: 540}
Number of labels used: 38
Total time: 562.17 sec
Memory: 394.00 MB
=============================================
[runlim] sample:		1088.2 time, 570.2 real, 393.0 MB
[runlim] sample:		1108.2 time, 580.2 real, 393.0 MB
[runlim] sample:		1128.1 time, 590.2 real, 393.0 MB
[runlim] end:			Sat Jan 24 19:06:49 2026
[runlim] status:		out of time
[runlim] result:		2
[runlim] children:		0
[runlim] real:			600.11 seconds
[runlim] time:			1147.93 seconds
[runlim] space:			393.0 MB
[runlim] samples:		5999
